param n := 60;
param c := 10000
param : V : p w :=
   0	  80	 403
   1	  79	 287
   2	   9	 310
   3	  10	 427
   4	  71	 281
   5	  56	 292
   6	  35	 451
   7	  28	 265
   8	  93	 284
   9	  94	 450
  10	  51	 250
  11	   5	 300
  12	  50	 400
  13	  86	 278
  14	  80	 322
  15	  73	 374
  16	  44	 261
  17	  98	 365
  18	  45	 380
  19	  88	 276
  20	  88	 344
  21	  62	 464
  22	  22	 252
  23	  32	 284
  24	  40	 394
  25	  11	 269
  26	  98	 337
  27	  55	 375
  28	  15	 297
  29	  31	 328
  30	   5	 498
  31	  60	 250
  32	  85	 252
  33	  87	 374
  34	  66	 304
  35	  71	 322
  36	  58	 355
  37	  50	 276
  38	  28	 369
  39	  51	 485
  40	  11	 253
  41	  65	 262
  42	  13	 357
  43	  43	 275
  44	  96	 368
  45	  84	 424
  46	  40	 259
  47	   9	 317
  48	  95	 471
  49	  30	 250
  50	  81	 279
  51	  74	 388
  52	  32	 273
  53	  69	 339
  54	  91	 449
  55	  67	 275
  56	   4	 276
  57	  82	 405
  58	  29	 274
  59	  42	 321
;

set E :=
   0	   4
   0	   7
   0	   8
   0	   9
   0	  11
   0	  18
   0	  20
   0	  22
   0	  30
   0	  34
   0	  37
   0	  45
   0	  54
   0	  56
   0	  59
   1	   3
   1	   5
   1	  15
   1	  18
   1	  19
   1	  26
   1	  32
   1	  47
   1	  49
   1	  59
   2	   5
   2	   7
   2	  10
   2	  11
   2	  12
   2	  15
   2	  26
   2	  27
   2	  34
   2	  35
   2	  51
   2	  59
   3	   8
   3	  16
   3	  17
   3	  31
   3	  38
   3	  42
   3	  54
   3	  57
   4	  15
   4	  17
   4	  22
   4	  34
   4	  35
   4	  43
   4	  45
   4	  46
   5	  12
   5	  13
   5	  18
   5	  22
   5	  24
   5	  28
   5	  33
   5	  36
   5	  37
   5	  45
   5	  46
   5	  48
   5	  54
   5	  55
   5	  57
   6	   7
   6	   8
   6	   9
   6	  12
   6	  13
   6	  17
   6	  24
   6	  33
   6	  34
   6	  43
   6	  46
   6	  53
   6	  58
   7	  10
   7	  18
   7	  20
   7	  22
   7	  25
   7	  32
   7	  38
   7	  46
   7	  49
   8	  16
   8	  19
   8	  25
   8	  26
   8	  42
   8	  43
   8	  44
   8	  48
   8	  55
   8	  59
   9	  14
   9	  19
   9	  24
   9	  27
   9	  30
   9	  47
   9	  48
   9	  50
   9	  53
   9	  56
   9	  58
  10	  12
  10	  23
  10	  28
  10	  31
  10	  33
  10	  39
  10	  40
  10	  41
  10	  42
  10	  54
  11	  21
  11	  29
  11	  32
  11	  37
  11	  41
  11	  47
  11	  52
  11	  54
  12	  14
  12	  21
  12	  24
  12	  27
  12	  33
  12	  34
  12	  39
  12	  40
  12	  42
  12	  45
  12	  48
  12	  58
  12	  59
  13	  15
  13	  16
  13	  21
  13	  26
  13	  30
  13	  36
  13	  41
  13	  42
  13	  43
  13	  45
  13	  46
  13	  53
  13	  55
  14	  19
  14	  27
  14	  29
  14	  40
  14	  49
  14	  54
  15	  28
  15	  29
  15	  30
  15	  39
  15	  44
  15	  49
  15	  57
  16	  22
  16	  35
  16	  43
  16	  45
  16	  49
  16	  51
  16	  53
  16	  55
  17	  21
  17	  24
  17	  32
  17	  40
  17	  52
  17	  55
  17	  59
  18	  22
  18	  26
  18	  30
  18	  32
  18	  45
  18	  50
  19	  26
  19	  38
  19	  40
  19	  41
  19	  45
  19	  48
  19	  49
  19	  53
  19	  58
  20	  24
  20	  26
  20	  29
  20	  32
  20	  35
  20	  52
  21	  22
  21	  26
  21	  36
  21	  37
  21	  40
  21	  42
  21	  44
  21	  50
  21	  58
  22	  31
  22	  33
  22	  37
  22	  42
  22	  44
  22	  49
  23	  24
  23	  33
  23	  37
  23	  39
  23	  42
  23	  44
  23	  46
  23	  53
  23	  58
  24	  25
  24	  34
  24	  42
  24	  56
  25	  26
  25	  27
  25	  39
  25	  40
  25	  44
  25	  53
  25	  56
  25	  58
  26	  34
  26	  36
  26	  42
  26	  43
  26	  48
  26	  49
  26	  52
  26	  54
  27	  31
  27	  34
  27	  37
  27	  38
  27	  51
  27	  53
  28	  31
  28	  35
  28	  36
  28	  37
  28	  39
  28	  43
  28	  48
  28	  49
  28	  52
  28	  57
  29	  37
  29	  41
  29	  51
  30	  32
  30	  34
  30	  39
  30	  40
  30	  42
  30	  43
  30	  47
  30	  55
  30	  56
  30	  59
  31	  38
  31	  40
  31	  41
  31	  43
  31	  49
  31	  52
  31	  56
  31	  57
  31	  59
  32	  33
  32	  39
  32	  50
  33	  34
  33	  37
  33	  39
  33	  44
  33	  47
  33	  49
  33	  55
  34	  39
  34	  41
  34	  46
  34	  52
  34	  54
  34	  59
  35	  49
  36	  41
  36	  44
  36	  46
  36	  54
  36	  56
  37	  39
  37	  52
  37	  59
  38	  42
  38	  48
  38	  51
  38	  53
  38	  57
  38	  59
  39	  41
  39	  43
  39	  45
  39	  49
  40	  42
  40	  44
  40	  45
  40	  49
  40	  50
  40	  51
  41	  47
  42	  46
  42	  47
  42	  50
  42	  51
  42	  53
  42	  54
  43	  44
  43	  47
  43	  48
  43	  51
  43	  55
  44	  45
  44	  47
  44	  51
  44	  52
  45	  48
  45	  55
  46	  49
  46	  51
  46	  56
  46	  58
  48	  52
  48	  58
  50	  54
  50	  57
  51	  58
  52	  55
  52	  57
  53	  57
  55	  56
  55	  59
  57	  58
;
